Version identifier: 22.1.1.0 | 2022-11-28 | 9160aff4d
CPXPARAM_ClockType                               1
CPXPARAM_Read_DataCheck                          1
CPXPARAM_Threads                                 1
CPXPARAM_Simplex_Tolerances_Optimality           1.0000000000000001e-09
CPXPARAM_TimeLimit                               7200
CPXPARAM_MIP_Tolerances_AbsMIPGap                0
CPXPARAM_MIP_Tolerances_MIPGap                   0
CPXPARAM_MIP_Tolerances_Integrality              0
Tried aggregator 2 times.
MIQP Presolve eliminated 1808 rows and 50 columns.
MIQP Presolve modified 904 coefficients.
Aggregator did 20 substitutions.
Reduced MIQP has 277465 rows, 54710 columns, and 853703 nonzeros.
Reduced MIQP has 51972 binaries, 2738 generals, 0 SOSs, and 0 indicators.
Reduced MIQP objective Q matrix has 2738 nonzeros.
Presolve time = 4.19 sec. (2200.24 ticks)
Probing time = 0.08 sec. (23.57 ticks)
Tried aggregator 1 time.
MIQP Presolve eliminated 820 rows and 0 columns.
Reduced MIQP has 276645 rows, 54710 columns, and 851243 nonzeros.
Reduced MIQP has 51972 binaries, 2738 generals, 0 SOSs, and 0 indicators.
Reduced MIQP objective Q matrix has 2738 nonzeros.
Presolve time = 2.59 sec. (1504.46 ticks)
Classifier predicts products in MIQP should be linearized.
Probing time = 0.07 sec. (22.93 ticks)
Clique table members: 186223.
MIP emphasis: balance optimality and feasibility.
MIP search method: dynamic search.
Parallel mode: none, using 1 thread.
Root relaxation solution time = 6923.79 sec. (11024869.39 ticks)

        Nodes                                         Cuts/
   Node  Left     Objective  IInf  Best Integer    Best Bound    ItCnt     Gap

      0     0    68425.5906 27513                  68425.5906   513718         

Clique cuts applied:  30
Zero-half cuts applied:  8226
Gomory fractional cuts applied:  28

Root node processing (before b&c):
  Real time             = 7200.39 sec. (11183184.33 ticks)
Sequential b&c:
  Real time             =    0.00 sec. (0.00 ticks)
                          ------------
Total (root+branch&cut) = 7200.39 sec. (11183184.33 ticks)
Solution is infeasible.

---------------------
@@@ MIP_time_limit_infeasible
Traceback (most recent call last):
  File "/scratch/scherif/DiverseSAT-journal_sup/DiverseSAT_Supplementary_Experiments/experiment-1/cplex/jobs/../solvers/CPLEX-QP-SE.py", line 118, in <module>
    print(f">>> Benchmark {os.path.basename(cnf_file)} k {k} OPT {int(prob.solution.get_objective_value())}"
  File "/users/scherif/.local/lib/python3.9/site-packages/cplex/_internal/_subinterfaces.py", line 7211, in get_objective_value
    return CPX_PROC.getobjval(self._env._e, self._cplex._lp)
  File "/users/scherif/.local/lib/python3.9/site-packages/cplex/_internal/_procedural.py", line 2055, in getobjval
    check_status(env, status)
  File "/users/scherif/.local/lib/python3.9/site-packages/cplex/_internal/_procedural.py", line 249, in __call__
    raise CplexSolverError(error_string, env, status)
cplex.exceptions.errors.CplexSolverError: CPLEX Error  1217: No solution exists.
